c Random Network
p max    10      20
n         1  s
n        10  t
a       1       4      46
a       2       8       4
a       4       1      50
a      10       3       6
a       2       3       5
a       8       5      44
a       9       2      45
a       2       1      26
a       2       5      43
a       9       6      36
a       9       3      33
a       5       6       4
a       5       8      18
a       3       4      29
a       3       2       5
a       1       2      45
a       6       5      19
a       2       9      47
a       3       7      26
a       3      10      46
